a.lp
Max
150 g14 + 150 g34 + 150 g24 + 200 d14 + 200 d34 + 200 d24 + 1000 j14 + 1000 j24 + 1000 j34
Subject To
d12 + d13 + d14 <= 75
g12 + g13 + g14 <= 200
d21 + d23 + d24 <= 75
g21 + g23 + g24 <= 200

70 j31 + 70 j34 + 70 j32 - 60 g13 - 60 g43 - 60 g23 = 0
20 j31 + 20 j34 + 20 j32 - 60 d13 - 60 d43 - 60 d23 = 0

d13 + g13 + j13 + d31 + g31 + j31 <= 165
d23 + g23 + j23 + d32 + g32 + j32 <= 165
d12 + g12 + j12 + d21 + g21 + j21 <= 165
d14 + g14 + j14 + d41 + g41 + j41 <= 165
d24 + g24 + j24 + d42 + g42 + j42 <= 165
d34 + g34 + j34 + d43 + g43 + j43 <= 165

d13 + d14 + d12 - d31 - d41 - d21 <= 0
g13 + g14 + g12 - g31 - g41 - g21 <= 0
j13 + j14 + j12 - j31 - j41 - j21 = 0
d23 + d24 + d21 - d32 - d42 - d12 <= 0
g23 + g24 + g21 - g32 - g42 - g12 <= 0
j23 + j24 + j21 - j32 - j42 - j12 = 0

Bounds
d12 >= 0
g12 >= 0
j12 >= 0
d21 >= 0
g21 >= 0
j21 >= 0
d13 >= 0
g13 >= 0
j13 >= 0
d31 >= 0
g31 >= 0
j31 >= 0
d14 >= 0
g14 >= 0
j14 >= 0
d41 >= 0
g41 >= 0
j41 >= 0
d23 >= 0
g23 >= 0
j23 >= 0
d32 >= 0
g32 >= 0
j32 >= 0
d24 >= 0
g24 >= 0
j24 >= 0
d42 >= 0
g42 >= 0
j42 >= 0
d34 >= 0
g34 >= 0
j34 >= 0
d43 >= 0
g43 >= 0
j43 >= 0
End